100
32
9
6
8
12
2
2
22
12
15
18
24
10
4
3
6
24
25
22
2
21
12
18
17
19
1
25
11
3
20
7
6
12
6
20
21
4
11
6
25
14
20
8
24
32
18
4
2
22
26
2
2
6
19
15
3
15
22
10
8
3
15
22
21
17
17
23
3
32
6
24
6
29
9
4
23
28
26
2
4
3
14
11
12
23
13
7
13
2
15
6
8
14
5
20
12
14
3
24
2
7